(set-logic QF_UF)
(declare-fun A0 () Bool)
(declare-fun A1 () Bool)
(declare-fun A2 () Bool)
(declare-fun A3 () Bool)
(declare-fun A4 () Bool)
(declare-fun A5 () Bool)
(declare-fun A6 () Bool)
(declare-fun A7 () Bool)
(declare-fun A8 () Bool)
(declare-fun A10 () Bool)
(declare-fun A11 () Bool)
(declare-fun A12 () Bool)
(declare-fun A13 () Bool)
(declare-fun A14 () Bool)
(declare-fun A15 () Bool)
(declare-fun A16 () Bool)
(declare-fun A17 () Bool)
(declare-fun A18 () Bool)
(declare-fun A19 () Bool)
(declare-fun A20 () Bool)
(declare-fun A21 () Bool)
(declare-fun A22 () Bool)
(declare-fun A23 () Bool)
(declare-fun A24 () Bool)
(declare-fun A25 () Bool)
(declare-fun A26 () Bool)
(declare-fun A27 () Bool)
(declare-fun A28 () Bool)
(declare-fun A29 () Bool)
(assert (let ((.def_0 (= A6 A18))) (let ((.def_1 (not .def_0))) (let ((.def_2 (not A16))) (let ((.def_3 (or A29 .def_2))) (let ((.def_4 (and .def_3 .def_1))) (let ((.def_5 (not A12))) (let ((.def_6 (not A20))) (let ((.def_7 (or .def_6 .def_5))) (let ((.def_8 (not A17))) (let ((.def_9 (and .def_8 A4))) (let ((.def_10 (not .def_9))) (let ((.def_11 (or .def_10 .def_7))) (let ((.def_12 (= .def_11 .def_4))) (let ((.def_13 (not A11))) (let ((.def_14 (and A25 .def_13))) (let ((.def_15 (not .def_14))) (let ((.def_16 (not A15))) (let ((.def_17 (and .def_8 .def_16))) (let ((.def_18 (not .def_17))) (let ((.def_19 (= .def_18 .def_15))) (let ((.def_20 (and A14 A0))) (let ((.def_21 (not A10))) (let ((.def_22 (and .def_21 A23))) (let ((.def_23 (and .def_22 .def_20))) (let ((.def_24 (or .def_23 .def_19))) (let ((.def_25 (or .def_24 .def_12))) (let ((.def_26 (not A6))) (let ((.def_27 (and A1 .def_26))) (let ((.def_28 (not A28))) (let ((.def_29 (or A0 .def_28))) (let ((.def_30 (or .def_29 .def_27))) (let ((.def_31 (not .def_30))) (let ((.def_32 (not A26))) (let ((.def_33 (and .def_32 .def_32))) (let ((.def_34 (not .def_33))) (let ((.def_35 (not A2))) (let ((.def_36 (and .def_8 .def_35))) (let ((.def_37 (not .def_36))) (let ((.def_38 (or .def_37 .def_34))) (let ((.def_39 (not .def_38))) (let ((.def_40 (or .def_39 .def_31))) (let ((.def_41 (not A18))) (let ((.def_42 (and .def_41 .def_41))) (let ((.def_43 (not .def_42))) (let ((.def_44 (not A5))) (let ((.def_45 (or .def_44 A0))) (let ((.def_46 (or .def_45 .def_43))) (let ((.def_47 (not A4))) (let ((.def_48 (or .def_6 .def_47))) (let ((.def_49 (not A29))) (let ((.def_50 (or A11 .def_49))) (let ((.def_51 (and .def_50 .def_48))) (let ((.def_52 (not .def_51))) (let ((.def_53 (or .def_52 .def_46))) (let ((.def_54 (or .def_53 .def_40))) (let ((.def_55 (not .def_54))) (let ((.def_56 (or .def_55 .def_25))) (let ((.def_57 (= A1 A5))) (let ((.def_58 (not A19))) (let ((.def_59 (and .def_58 A18))) (let ((.def_60 (and .def_59 .def_57))) (let ((.def_61 (not .def_60))) (let ((.def_62 (or A24 .def_5))) (let ((.def_63 (not .def_62))) (let ((.def_64 (or A26 A1))) (let ((.def_65 (not .def_64))) (let ((.def_66 (and .def_65 .def_63))) (let ((.def_67 (not .def_66))) (let ((.def_68 (and .def_67 .def_61))) (let ((.def_69 (and A11 A4))) (let ((.def_70 (not .def_69))) (let ((.def_71 (= .def_16 A13))) (let ((.def_72 (not .def_71))) (let ((.def_73 (= .def_72 .def_70))) (let ((.def_74 (not A1))) (let ((.def_75 (or A18 .def_74))) (let ((.def_76 (not .def_75))) (let ((.def_77 (and A21 .def_58))) (let ((.def_78 (not .def_77))) (let ((.def_79 (= .def_78 .def_76))) (let ((.def_80 (not .def_79))) (let ((.def_81 (or .def_80 .def_73))) (let ((.def_82 (and .def_81 .def_68))) (let ((.def_83 (not A7))) (let ((.def_84 (and .def_26 .def_83))) (let ((.def_85 (not .def_84))) (let ((.def_86 (not A22))) (let ((.def_87 (or A17 .def_86))) (let ((.def_88 (not .def_87))) (let ((.def_89 (or .def_88 .def_85))) (let ((.def_90 (and A18 A3))) (let ((.def_91 (not .def_90))) (let ((.def_92 (or .def_58 A14))) (let ((.def_93 (or .def_92 .def_91))) (let ((.def_94 (not .def_93))) (let ((.def_95 (or .def_94 .def_89))) (let ((.def_96 (or A19 A27))) (let ((.def_97 (not .def_96))) (let ((.def_98 (and .def_13 A8))) (let ((.def_99 (not .def_98))) (let ((.def_100 (and .def_99 .def_97))) (let ((.def_101 (not .def_100))) (let ((.def_102 (not A25))) (let ((.def_103 (and A10 .def_102))) (let ((.def_104 (not .def_103))) (let ((.def_105 (and A24 .def_44))) (let ((.def_106 (not .def_105))) (let ((.def_107 (and .def_106 .def_104))) (let ((.def_108 (not .def_107))) (let ((.def_109 (or .def_108 .def_101))) (let ((.def_110 (and .def_109 .def_95))) (let ((.def_111 (or .def_110 .def_82))) (let ((.def_112 (or .def_111 .def_56))) .def_112))))))))))))))))))))))))))))))))))))))))))))))))))))))))))))))))))))))))))))))))))))))))))))))))))))))))))))))))))
(check-sat)
